(set-info :smt-lib-version 2.6)
(set-logic QF_LRA)
(set-info :source |
SAL benchmark suite.  Created at SRI by Bruno Dutertre, John Rushby, Maria
Sorea, and Leonardo de Moura.  Contact demoura@csl.sri.com for more
information.

This benchmark was automatically translated into SMT-LIB format from
CVC format using CVC Lite
|)
(set-info :category "industrial")
(set-info :status unsat)
(declare-fun x_0 () Bool)
(declare-fun x_1 () Bool)
(declare-fun x_2 () Bool)
(declare-fun x_3 () Bool)
(declare-fun x_4 () Bool)
(declare-fun x_5 () Bool)
(declare-fun x_6 () Real)
(declare-fun x_7 () Real)
(declare-fun x_8 () Real)
(declare-fun x_9 () Real)
(declare-fun x_10 () Real)
(declare-fun x_11 () Bool)
(declare-fun x_12 () Bool)
(declare-fun x_13 () Bool)
(declare-fun x_14 () Bool)
(declare-fun x_15 () Bool)
(declare-fun x_16 () Bool)
(declare-fun x_17 () Bool)
(declare-fun x_18 () Real)
(declare-fun x_19 () Bool)
(declare-fun x_20 () Bool)
(declare-fun x_21 () Real)
(declare-fun x_22 () Real)
(declare-fun x_23 () Real)
(declare-fun x_24 () Real)
(declare-fun x_25 () Bool)
(declare-fun x_26 () Bool)
(declare-fun x_27 () Real)
(declare-fun x_28 () Real)
(declare-fun x_29 () Bool)
(declare-fun x_30 () Bool)
(declare-fun x_31 () Real)
(declare-fun x_32 () Bool)
(declare-fun x_33 () Bool)
(declare-fun x_34 () Real)
(declare-fun x_35 () Bool)
(declare-fun x_36 () Bool)
(declare-fun x_37 () Bool)
(declare-fun x_38 () Bool)
(declare-fun x_39 () Bool)
(declare-fun x_40 () Bool)
(declare-fun x_41 () Real)
(declare-fun x_42 () Bool)
(declare-fun x_43 () Bool)
(declare-fun x_44 () Real)
(declare-fun x_45 () Real)
(declare-fun x_46 () Real)
(declare-fun x_47 () Bool)
(declare-fun x_48 () Bool)
(declare-fun x_49 () Real)
(declare-fun x_50 () Real)
(declare-fun x_51 () Real)
(declare-fun x_52 () Real)
(declare-fun x_53 () Bool)
(declare-fun x_54 () Bool)
(declare-fun x_55 () Bool)
(declare-fun x_56 () Bool)
(declare-fun x_57 () Bool)
(declare-fun x_58 () Bool)
(declare-fun x_59 () Real)
(declare-fun x_60 () Bool)
(declare-fun x_61 () Bool)
(declare-fun x_62 () Real)
(declare-fun x_63 () Real)
(declare-fun x_64 () Real)
(declare-fun x_65 () Bool)
(declare-fun x_66 () Bool)
(declare-fun x_67 () Real)
(declare-fun x_68 () Real)
(declare-fun x_69 () Real)
(declare-fun x_70 () Real)
(declare-fun x_71 () Bool)
(declare-fun x_72 () Bool)
(declare-fun x_73 () Bool)
(declare-fun x_74 () Bool)
(declare-fun x_75 () Bool)
(declare-fun x_76 () Bool)
(declare-fun x_77 () Real)
(declare-fun x_78 () Bool)
(declare-fun x_79 () Bool)
(declare-fun x_80 () Real)
(declare-fun x_81 () Real)
(declare-fun x_82 () Real)
(declare-fun x_83 () Bool)
(declare-fun x_84 () Bool)
(declare-fun x_85 () Real)
(declare-fun x_86 () Real)
(declare-fun x_87 () Real)
(declare-fun x_88 () Real)
(assert (let ((?v_23 (+ x_63 x_9)) (?v_24 (and (= x_71 x_53) (= x_72 x_54))) (?v_14 (not x_73))) (let ((?v_16 (and ?v_14 x_74)) (?v_33 (and (= x_75 x_57) (= x_76 x_58))) (?v_9 (= x_67 1)) (?v_31 (= x_77 x_59)) (?v_12 (and (= x_78 x_60) (= x_79 x_61))) (?v_5 (= x_80 x_62)) (?v_11 (+ x_62 x_9)) (?v_28 (= x_77 0)) (?v_0 (= x_67 0)) (?v_21 (= x_81 x_63)) (?v_17 (= x_81 0)) (?v_26 (= x_82 x_64)) (?v_32 (+ x_59 x_9)) (?v_2 (not x_83))) (let ((?v_4 (and ?v_2 x_84)) (?v_53 (+ x_45 x_8)) (?v_54 (and (= x_53 x_35) (= x_54 x_36))) (?v_46 (not x_55))) (let ((?v_48 (and ?v_46 x_56)) (?v_61 (and (= x_57 x_39) (= x_58 x_40))) (?v_41 (= x_49 1)) (?v_59 (= x_59 x_41)) (?v_44 (and (= x_60 x_42) (= x_61 x_43))) (?v_39 (= x_62 x_44)) (?v_43 (+ x_44 x_8)) (?v_58 (= x_59 0)) (?v_34 (= x_49 0)) (?v_51 (= x_63 x_45)) (?v_49 (= x_63 0)) (?v_56 (= x_64 x_46)) (?v_60 (+ x_41 x_8)) (?v_36 (not x_65))) (let ((?v_38 (and ?v_36 x_66)) (?v_81 (+ x_22 x_7)) (?v_82 (and (= x_35 x_11) (= x_36 x_12))) (?v_74 (not x_37))) (let ((?v_76 (and ?v_74 x_38)) (?v_89 (and (= x_39 x_15) (= x_40 x_16))) (?v_69 (= x_27 1)) (?v_87 (= x_41 x_18)) (?v_72 (and (= x_42 x_19) (= x_43 x_20))) (?v_67 (= x_44 x_21)) (?v_71 (+ x_21 x_7)) (?v_86 (= x_41 0)) (?v_62 (= x_27 0)) (?v_79 (= x_45 x_22)) (?v_77 (= x_45 0)) (?v_84 (= x_46 x_23)) (?v_88 (+ x_18 x_7)) (?v_64 (not x_47))) (let ((?v_66 (and ?v_64 x_48)) (?v_98 (+ 0 x_6)) (?v_107 (and (= x_11 x_2) (= x_12 x_3))) (?v_102 (not x_13))) (let ((?v_104 (and ?v_102 x_14)) (?v_112 (and (= x_15 x_4) (= x_16 x_5))) (?v_111 (= x_18 0)) (?v_99 (and (= x_19 x_0) (= x_20 x_1))) (?v_94 (= x_21 0)) (?v_92 (not x_17)) (?v_103 (= x_22 0)) (?v_110 (= x_23 x_24)) (?v_93 (not x_25))) (let ((?v_95 (and ?v_93 x_26)) (?v_90 (not x_0)) (?v_91 (not x_1)) (?v_100 (not x_2)) (?v_101 (not x_3)) (?v_108 (not x_4)) (?v_109 (not x_5)) (?v_3 (not x_60)) (?v_1 (not x_61)) (?v_6 (not x_84)) (?v_8 (not x_79)) (?v_7 (not x_78)) (?v_15 (not x_53)) (?v_13 (not x_54)) (?v_20 (not x_72)) (?v_18 (not x_74)) (?v_19 (not x_71)) (?v_27 (not x_57)) (?v_25 (not x_58)) (?v_30 (not x_76)) (?v_29 (not x_75))) (let ((?v_113 (or ?v_27 ?v_25)) (?v_37 (not x_42)) (?v_35 (not x_43)) (?v_40 (not x_66)) (?v_47 (not x_35)) (?v_45 (not x_36)) (?v_50 (not x_56)) (?v_57 (not x_39)) (?v_55 (not x_40))) (let ((?v_114 (or ?v_57 ?v_55)) (?v_65 (not x_19)) (?v_63 (not x_20)) (?v_68 (not x_48)) (?v_75 (not x_11)) (?v_73 (not x_12)) (?v_78 (not x_38)) (?v_85 (not x_15)) (?v_83 (not x_16))) (let ((?v_115 (or ?v_85 ?v_83)) (?v_96 (not x_26)) (?v_105 (not x_14)) (?v_116 (or ?v_108 ?v_109)) (?v_10 (<= ?v_11 5)) (?v_22 (<= ?v_23 1)) (?v_42 (<= ?v_43 5)) (?v_52 (<= ?v_53 1)) (?v_70 (<= ?v_71 5)) (?v_80 (<= ?v_81 1)) (?v_97 (<= ?v_98 5)) (?v_106 (<= ?v_98 1))) (and (and (and (and (and (and (and (and (and (and (and (and (and (and (and (and (and (and (and (and (and (and (and (and (and (and (and (and (and (and (and (and (and (and (and (and (and (and (and (and (and (and (<= x_85 1) (>= x_85 0)) (<= x_67 1)) (>= x_67 0)) (<= x_49 1)) (>= x_49 0)) (<= x_27 1)) (>= x_27 0)) (and ?v_90 ?v_91)) (and ?v_100 ?v_101)) (and ?v_108 ?v_109)) (not (< x_10 0))) (not (< x_9 0))) (not (< x_8 0))) (not (< x_7 0))) (not (< x_6 0))) (= x_85 (ite ?v_9 0 1))) (or (or (or (or (or (and (and (and (and (and (and (and (and (= x_86 0) ?v_0) ?v_3) ?v_1) ?v_2) ?v_6) x_78) ?v_8) (= x_80 0)) (and (and (and (and (and (and (and (and (= x_86 1) ?v_0) x_60) ?v_1) (not (<= x_62 2))) ?v_4) ?v_7) x_79) ?v_5)) (and (and (and (and (and (and (and (= x_86 2) ?v_0) ?v_3) x_61) ?v_4) x_78) x_79) ?v_5)) (and (and (and (and (and (and (and (and (= x_86 3) ?v_0) x_60) x_61) x_83) ?v_6) ?v_7) ?v_8) ?v_5)) (and (and (and (and (and (and (and (and (= x_86 4) ?v_9) (or (or ?v_3 x_61) ?v_10)) (or (or x_60 ?v_1) ?v_10)) (or (or ?v_3 ?v_1) ?v_10)) (= x_80 ?v_11)) (= x_83 x_65)) (= x_84 x_66)) ?v_12)) (and (and (and (and (= x_86 5) ?v_0) ?v_5) ?v_4) ?v_12))) (or (or (or (or (or (and (and (and (and (and (and (and (and (and (= x_87 0) ?v_0) ?v_15) ?v_13) ?v_2) ?v_6) ?v_16) x_71) ?v_20) ?v_17) (and (and (and (and (and (and (and (and (and (= x_87 1) ?v_0) x_53) ?v_13) (= x_63 1)) ?v_14) ?v_18) ?v_19) x_72) ?v_21)) (and (and (and (and (and (and (and (and (and (= x_87 2) ?v_0) ?v_15) x_54) x_83) ?v_6) ?v_16) x_71) x_72) ?v_17)) (and (and (and (and (and (and (and (and (= x_87 3) ?v_0) x_53) x_54) x_73) ?v_18) ?v_19) ?v_20) ?v_21)) (and (and (and (and (and (and (and (= x_87 4) ?v_9) (or (or ?v_15 x_54) ?v_22)) (or (or ?v_15 ?v_13) ?v_22)) (= x_81 ?v_23)) (= x_73 x_55)) (= x_74 x_56)) ?v_24)) (and (and (and (and (and (and (= x_87 5) ?v_0) ?v_2) x_84) ?v_21) ?v_16) ?v_24))) (or (or (or (or (or (and (and (and (and (and (and (and (and (and (= x_88 0) ?v_0) ?v_27) ?v_25) ?v_14) ?v_18) x_75) ?v_30) ?v_28) ?v_26) (and (and (and (and (and (and (and (= x_88 1) ?v_0) x_57) ?v_25) ?v_29) x_76) ?v_26) ?v_31)) (and (and (and (and (and (and (and (and (and (= x_88 2) ?v_0) ?v_27) x_58) x_73) ?v_18) x_75) x_76) ?v_28) ?v_26)) (and (and (and (and (and (and (and (and (= x_88 3) ?v_0) x_57) x_58) (not (< x_59 1))) ?v_29) ?v_30) ?v_26) ?v_31)) (and (and (and (and (and (and (= x_88 4) ?v_9) (or (or ?v_27 x_58) (<= ?v_32 1))) (or ?v_113 (<= ?v_32 2))) (= x_77 ?v_32)) ?v_33) ?v_26)) (and (and (and (and (and (and (= x_88 5) ?v_0) ?v_14) x_74) ?v_31) ?v_33) ?v_26))) (= x_67 (ite ?v_41 0 1))) (or (or (or (or (or (and (and (and (and (and (and (and (and (= x_68 0) ?v_34) ?v_37) ?v_35) ?v_36) ?v_40) x_60) ?v_1) (= x_62 0)) (and (and (and (and (and (and (and (and (= x_68 1) ?v_34) x_42) ?v_35) (not (<= x_44 2))) ?v_38) ?v_3) x_61) ?v_39)) (and (and (and (and (and (and (and (= x_68 2) ?v_34) ?v_37) x_43) ?v_38) x_60) x_61) ?v_39)) (and (and (and (and (and (and (and (and (= x_68 3) ?v_34) x_42) x_43) x_65) ?v_40) ?v_3) ?v_1) ?v_39)) (and (and (and (and (and (and (and (and (= x_68 4) ?v_41) (or (or ?v_37 x_43) ?v_42)) (or (or x_42 ?v_35) ?v_42)) (or (or ?v_37 ?v_35) ?v_42)) (= x_62 ?v_43)) (= x_65 x_47)) (= x_66 x_48)) ?v_44)) (and (and (and (and (= x_68 5) ?v_34) ?v_39) ?v_38) ?v_44))) (or (or (or (or (or (and (and (and (and (and (and (and (and (and (= x_69 0) ?v_34) ?v_47) ?v_45) ?v_36) ?v_40) ?v_48) x_53) ?v_13) ?v_49) (and (and (and (and (and (and (and (and (and (= x_69 1) ?v_34) x_35) ?v_45) (= x_45 1)) ?v_46) ?v_50) ?v_15) x_54) ?v_51)) (and (and (and (and (and (and (and (and (and (= x_69 2) ?v_34) ?v_47) x_36) x_65) ?v_40) ?v_48) x_53) x_54) ?v_49)) (and (and (and (and (and (and (and (and (= x_69 3) ?v_34) x_35) x_36) x_55) ?v_50) ?v_15) ?v_13) ?v_51)) (and (and (and (and (and (and (and (= x_69 4) ?v_41) (or (or ?v_47 x_36) ?v_52)) (or (or ?v_47 ?v_45) ?v_52)) (= x_63 ?v_53)) (= x_55 x_37)) (= x_56 x_38)) ?v_54)) (and (and (and (and (and (and (= x_69 5) ?v_34) ?v_36) x_66) ?v_51) ?v_48) ?v_54))) (or (or (or (or (or (and (and (and (and (and (and (and (and (and (= x_70 0) ?v_34) ?v_57) ?v_55) ?v_46) ?v_50) x_57) ?v_25) ?v_58) ?v_56) (and (and (and (and (and (and (and (= x_70 1) ?v_34) x_39) ?v_55) ?v_27) x_58) ?v_56) ?v_59)) (and (and (and (and (and (and (and (and (and (= x_70 2) ?v_34) ?v_57) x_40) x_55) ?v_50) x_57) x_58) ?v_58) ?v_56)) (and (and (and (and (and (and (and (and (= x_70 3) ?v_34) x_39) x_40) (not (< x_41 1))) ?v_27) ?v_25) ?v_56) ?v_59)) (and (and (and (and (and (and (= x_70 4) ?v_41) (or (or ?v_57 x_40) (<= ?v_60 1))) (or ?v_114 (<= ?v_60 2))) (= x_59 ?v_60)) ?v_61) ?v_56)) (and (and (and (and (and (and (= x_70 5) ?v_34) ?v_46) x_56) ?v_59) ?v_61) ?v_56))) (= x_49 (ite ?v_69 0 1))) (or (or (or (or (or (and (and (and (and (and (and (and (and (= x_50 0) ?v_62) ?v_65) ?v_63) ?v_64) ?v_68) x_42) ?v_35) (= x_44 0)) (and (and (and (and (and (and (and (and (= x_50 1) ?v_62) x_19) ?v_63) (not (<= x_21 2))) ?v_66) ?v_37) x_43) ?v_67)) (and (and (and (and (and (and (and (= x_50 2) ?v_62) ?v_65) x_20) ?v_66) x_42) x_43) ?v_67)) (and (and (and (and (and (and (and (and (= x_50 3) ?v_62) x_19) x_20) x_47) ?v_68) ?v_37) ?v_35) ?v_67)) (and (and (and (and (and (and (and (and (= x_50 4) ?v_69) (or (or ?v_65 x_20) ?v_70)) (or (or x_19 ?v_63) ?v_70)) (or (or ?v_65 ?v_63) ?v_70)) (= x_44 ?v_71)) (= x_47 x_25)) (= x_48 x_26)) ?v_72)) (and (and (and (and (= x_50 5) ?v_62) ?v_67) ?v_66) ?v_72))) (or (or (or (or (or (and (and (and (and (and (and (and (and (and (= x_51 0) ?v_62) ?v_75) ?v_73) ?v_64) ?v_68) ?v_76) x_35) ?v_45) ?v_77) (and (and (and (and (and (and (and (and (and (= x_51 1) ?v_62) x_11) ?v_73) (= x_22 1)) ?v_74) ?v_78) ?v_47) x_36) ?v_79)) (and (and (and (and (and (and (and (and (and (= x_51 2) ?v_62) ?v_75) x_12) x_47) ?v_68) ?v_76) x_35) x_36) ?v_77)) (and (and (and (and (and (and (and (and (= x_51 3) ?v_62) x_11) x_12) x_37) ?v_78) ?v_47) ?v_45) ?v_79)) (and (and (and (and (and (and (and (= x_51 4) ?v_69) (or (or ?v_75 x_12) ?v_80)) (or (or ?v_75 ?v_73) ?v_80)) (= x_45 ?v_81)) (= x_37 x_13)) (= x_38 x_14)) ?v_82)) (and (and (and (and (and (and (= x_51 5) ?v_62) ?v_64) x_48) ?v_79) ?v_76) ?v_82))) (or (or (or (or (or (and (and (and (and (and (and (and (and (and (= x_52 0) ?v_62) ?v_85) ?v_83) ?v_74) ?v_78) x_39) ?v_55) ?v_86) ?v_84) (and (and (and (and (and (and (and (= x_52 1) ?v_62) x_15) ?v_83) ?v_57) x_40) ?v_84) ?v_87)) (and (and (and (and (and (and (and (and (and (= x_52 2) ?v_62) ?v_85) x_16) x_37) ?v_78) x_39) x_40) ?v_86) ?v_84)) (and (and (and (and (and (and (and (and (= x_52 3) ?v_62) x_15) x_16) (not (< x_18 1))) ?v_57) ?v_55) ?v_84) ?v_87)) (and (and (and (and (and (and (= x_52 4) ?v_69) (or (or ?v_85 x_16) (<= ?v_88 1))) (or ?v_115 (<= ?v_88 2))) (= x_41 ?v_88)) ?v_89) ?v_84)) (and (and (and (and (and (and (= x_52 5) ?v_62) ?v_74) x_38) ?v_87) ?v_89) ?v_84))) (= x_27 (ite x_17 0 1))) (or (or (or (or (or (and (and (and (and (and (and (and (and (= x_28 0) ?v_92) ?v_90) ?v_91) ?v_93) ?v_96) x_19) ?v_63) ?v_94) (and (and (and (and (and (and (and (and (= x_28 1) ?v_92) x_0) ?v_91) (not (<= 0 2))) ?v_95) ?v_65) x_20) ?v_94)) (and (and (and (and (and (and (and (= x_28 2) ?v_92) ?v_90) x_1) ?v_95) x_19) x_20) ?v_94)) (and (and (and (and (and (and (and (and (= x_28 3) ?v_92) x_0) x_1) x_25) ?v_96) ?v_65) ?v_63) ?v_94)) (and (and (and (and (and (and (and (and (= x_28 4) x_17) (or (or ?v_90 x_1) ?v_97)) (or (or x_0 ?v_91) ?v_97)) (or (or ?v_90 ?v_91) ?v_97)) (= x_21 ?v_98)) (= x_25 x_29)) (= x_26 x_30)) ?v_99)) (and (and (and (and (= x_28 5) ?v_92) ?v_94) ?v_95) ?v_99))) (or (or (or (or (or (and (and (and (and (and (and (and (and (and (= x_31 0) ?v_92) ?v_100) ?v_101) ?v_93) ?v_96) ?v_104) x_11) ?v_73) ?v_103) (and (and (and (and (and (and (and (and (and (= x_31 1) ?v_92) x_2) ?v_101) (= 0 1)) ?v_102) ?v_105) ?v_75) x_12) ?v_103)) (and (and (and (and (and (and (and (and (and (= x_31 2) ?v_92) ?v_100) x_3) x_25) ?v_96) ?v_104) x_11) x_12) ?v_103)) (and (and (and (and (and (and (and (and (= x_31 3) ?v_92) x_2) x_3) x_13) ?v_105) ?v_75) ?v_73) ?v_103)) (and (and (and (and (and (and (and (= x_31 4) x_17) (or (or ?v_100 x_3) ?v_106)) (or (or ?v_100 ?v_101) ?v_106)) (= x_22 ?v_98)) (= x_13 x_32)) (= x_14 x_33)) ?v_107)) (and (and (and (and (and (and (= x_31 5) ?v_92) ?v_93) x_26) ?v_103) ?v_104) ?v_107))) (or (or (or (or (or (and (and (and (and (and (and (and (and (and (= x_34 0) ?v_92) ?v_108) ?v_109) ?v_102) ?v_105) x_15) ?v_83) ?v_111) ?v_110) (and (and (and (and (and (and (and (= x_34 1) ?v_92) x_4) ?v_109) ?v_85) x_16) ?v_110) ?v_111)) (and (and (and (and (and (and (and (and (and (= x_34 2) ?v_92) ?v_108) x_5) x_13) ?v_105) x_15) x_16) ?v_111) ?v_110)) (and (and (and (and (and (and (and (and (= x_34 3) ?v_92) x_4) x_5) (not (< 0 1))) ?v_85) ?v_83) ?v_110) ?v_111)) (and (and (and (and (and (and (= x_34 4) x_17) (or (or ?v_108 x_5) ?v_106)) (or ?v_116 (<= ?v_98 2))) (= x_18 ?v_98)) ?v_112) ?v_110)) (and (and (and (and (and (and (= x_34 5) ?v_92) ?v_102) x_14) ?v_111) ?v_112) ?v_110))) (or (or (or (or (and (and ?v_7 x_79) (or ?v_29 ?v_30)) (and (and ?v_3 x_61) ?v_113)) (and (and ?v_37 x_43) ?v_114)) (and (and ?v_65 x_20) ?v_115)) (and (and ?v_90 x_1) ?v_116))) (or ?v_105 ?v_102)) (or ?v_96 ?v_93)) (or (not x_30) (not x_29))) (or (not x_33) (not x_32))) (or ?v_78 ?v_74)) (or ?v_68 ?v_64)) (or ?v_50 ?v_46)) (or ?v_40 ?v_36)) (or ?v_18 ?v_14)) (or ?v_6 ?v_2)))))))))))))))
(check-sat)
(exit)
